0 0 1 1 1 1 1 1 1 
0 47 24 79 15 71 25 16 15 
47 0 59 38 40 57 65 54 61 
24 59 0 72 39 41 79 31 15 
79 38 72 0 75 59 16 77 39 
15 40 39 75 0 29 37 15 56 
71 57 41 59 29 0 29 33 63 
25 65 79 16 37 29 0 51 70 
16 54 31 77 15 33 51 0 64 
15 61 15 39 56 63 70 64 0 
2 50
1B 8P 5P 2B 4P 7P 6P 3P 9P = 225